10
100
0 7 12 9 14 20 18 25 30 16
7 0 10 8 13 17 15 22 28 14
12 10 0 11 6 15 14 21 27 13
9 8 11 0 9 12 10 18 24 11
14 13 6 9 0 10 9 16 22 12
20 17 15 12 10 0 8 14 19 15
18 15 14 10 9 8 0 12 17 13
25 22 21 18 16 14 12 0 11 9
30 28 27 24 22 19 17 11 0 8
16 14 13 11 12 15 13 9 8 0
5
12
8
20
15
18
10
25
30
22
